width,height
25,10
15,5
4,1
8,2
20,5
9,4
17,1
13,1
17,2
17,2
5,3
24,4
12,5
25,3
17,1
6,3
4,4
16,3
19,1
16,3
18,1
21,2
8,5
12,4
4,3
17,4
23,5
8,5
8,2
3,2
13,5
14,3
16,5
21,1
16,1
20,2
3,4
5,1
16,1
8,4
10,5
8,4
16,5
22,3
1,4
6,2
23,1
4,5
23,5
11,3
24,1
19,3
15,1
14,4
8,3
22,1
17,1
3,4
8,1
9,3
3,5
15,2
6,1
24,3
8,2
8,3
19,5
8,5
14,3
1,5
16,3
8,3
12,3
7,2
4,5
14,2
19,2
9,1
5,5
23,5
1,1
2,1
22,5
19,1
17,4
2,2
6,1
20,2
2,3
13,2
16,2
6,3
11,5
23,4
22,2
20,5
17,2
5,2
23,1
21,4
10,1
